p cnf 13 27
-13 -12 -6 0
-13 12 5 0
13 12 -2 0
13 -10 4 0
-13 -7 3 0
-13 -6 2 0
-12 11 2 0
-12 8 -2 0
12 -8 1 0
-12 -7 6 0
12 -7 -2 0
-12 6 -4 0
12 -4 1 0
-12 2 -1 0
11 10 1 0
-11 -7 -4 0
-11 -3 2 0
11 -3 1 0
-11 2 1 0
10 -6 -2 0
-10 4 1 0
-9 -7 -6 0
-8 7 -4 0
-8 -7 -3 0
-8 -5 -4 0
-7 -6 2 0
-5 4 -1 0
